p tw 28 200
0 1
0 2
0 25
0 16
0 23
0 9
0 18
0 22
0 26
0 11
0 13
0 14
0 21
0 15
1 2
1 3
1 4
1 25
1 15
1 10
1 12
1 17
1 22
1 8
1 18
2 7
2 8
2 26
2 27
2 4
2 23
2 15
2 21
2 11
2 9
2 20
2 6
2 25
3 4
3 10
3 14
3 15
3 16
3 7
3 22
3 13
3 24
3 23
3 9
3 6
3 25
3 12
4 8
4 19
4 24
4 7
4 10
4 18
4 25
4 17
4 27
4 23
4 6
4 21
4 11
4 13
4 14
5 6
5 7
5 14
5 24
5 13
5 15
5 27
6 7
6 9
6 14
6 12
6 17
6 18
6 16
6 24
6 10
6 20
6 25
7 14
7 20
7 11
7 22
7 10
7 8
7 9
7 15
7 17
7 18
7 19
8 9
8 10
8 17
8 18
8 19
8 24
8 14
8 11
8 13
9 10
9 14
9 12
9 25
9 15
9 18
9 13
9 22
9 16
9 23
9 20
9 27
10 14
10 23
10 25
10 12
10 20
10 26
10 24
10 22
11 12
11 13
11 22
11 16
11 24
11 17
11 26
11 23
11 15
11 21
11 25
12 13
12 25
12 16
12 26
12 17
12 19
12 27
12 23
12 14
12 15
13 18
13 21
13 24
13 22
13 25
13 16
14 20
14 16
14 18
14 15
14 24
14 27
14 21
15 16
15 24
15 18
15 23
15 26
15 27
15 21
16 18
16 24
16 26
16 27
16 23
16 21
16 22
17 18
17 26
17 27
17 22
18 21
18 25
18 23
18 22
18 20
19 23
19 24
19 27
19 22
19 20
20 22
20 24
20 26
21 22
21 25
22 26
22 24
22 25
23 24
23 25
23 26
24 26
26 27
